AES_/MILP-Lec/model_4_x_4_7R_int_r4_mat_r1.sol
# Solution for model model_4_x_4_7R_int_r4_mat_r1
# Objective value = 2
SB_x[0,0]_r[0] 1
SB_y[0,0]_r[0] 0
SB_g[0,0]_r[0] 0
SB_w[0,0]_r[0] 0
SB_x[0,1]_r[0] 0
SB_y[0,1]_r[0] 1
SB_g[0,1]_r[0] 0
SB_w[0,1]_r[0] 0
SB_x[0,2]_r[0] 1
SB_y[0,2]_r[0] 0
SB_g[0,2]_r[0] 0
SB_w[0,2]_r[0] 0
SB_x[0,3]_r[0] 0
SB_y[0,3]_r[0] 1
SB_g[0,3]_r[0] 0
SB_w[0,3]_r[0] 0
SB_x[1,0]_r[0] 0
SB_y[1,0]_r[0] 1
SB_g[1,0]_r[0] 0
SB_w[1,0]_r[0] 0
SB_x[1,1]_r[0] 1
SB_y[1,1]_r[0] 0
SB_g[1,1]_r[0] 0
SB_w[1,1]_r[0] 0
SB_x[1,2]_r[0] 0
SB_y[1,2]_r[0] 1
SB_g[1,2]_r[0] 0
SB_w[1,2]_r[0] 0
SB_x[1,3]_r[0] 1
SB_y[1,3]_r[0] 0
SB_g[1,3]_r[0] 0
SB_w[1,3]_r[0] 0
SB_x[2,0]_r[0] 1
SB_y[2,0]_r[0] 0
SB_g[2,0]_r[0] 0
SB_w[2,0]_r[0] 0
SB_x[2,1]_r[0] 0
SB_y[2,1]_r[0] 1
SB_g[2,1]_r[0] 0
SB_w[2,1]_r[0] 0
SB_x[2,2]_r[0] 1
SB_y[2,2]_r[0] 0
SB_g[2,2]_r[0] 0
SB_w[2,2]_r[0] 0
SB_x[2,3]_r[0] 0
SB_y[2,3]_r[0] 1
SB_g[2,3]_r[0] 0
SB_w[2,3]_r[0] 0
SB_x[3,0]_r[0] 0
SB_y[3,0]_r[0] 1
SB_g[3,0]_r[0] 0
SB_w[3,0]_r[0] 0
SB_x[3,1]_r[0] 1
SB_y[3,1]_r[0] 0
SB_g[3,1]_r[0] 0
SB_w[3,1]_r[0] 0
SB_x[3,2]_r[0] 0
SB_y[3,2]_r[0] 1
SB_g[3,2]_r[0] 0
SB_w[3,2]_r[0] 0
SB_x[3,3]_r[0] 1
SB_y[3,3]_r[0] 0
SB_g[3,3]_r[0] 0
SB_w[3,3]_r[0] 0
SB_x[0,0]_r[1] 1
SB_y[0,0]_r[1] 0
SB_g[0,0]_r[1] 0
SB_w[0,0]_r[1] 0
SB_x[0,1]_r[1] 0
SB_y[0,1]_r[1] 1
SB_g[0,1]_r[1] 0
SB_w[0,1]_r[1] 0
SB_x[0,2]_r[1] 1
SB_y[0,2]_r[1] 0
SB_g[0,2]_r[1] 0
SB_w[0,2]_r[1] 0
SB_x[0,3]_r[1] 0
SB_y[0,3]_r[1] 1
SB_g[0,3]_r[1] 0
SB_w[0,3]_r[1] 0
SB_x[1,0]_r[1] 1
SB_y[1,0]_r[1] 0
SB_g[1,0]_r[1] 0
SB_w[1,0]_r[1] 0
SB_x[1,1]_r[1] 0
SB_y[1,1]_r[1] 1
SB_g[1,1]_r[1] 0
SB_w[1,1]_r[1] 0
SB_x[1,2]_r[1] 1
SB_y[1,2]_r[1] 0
SB_g[1,2]_r[1] 0
SB_w[1,2]_r[1] 0
SB_x[1,3]_r[1] 0
SB_y[1,3]_r[1] 1
SB_g[1,3]_r[1] 0
SB_w[1,3]_r[1] 0
SB_x[2,0]_r[1] 1
SB_y[2,0]_r[1] 0
SB_g[2,0]_r[1] 0
SB_w[2,0]_r[1] 0
SB_x[2,1]_r[1] 0
SB_y[2,1]_r[1] 1
SB_g[2,1]_r[1] 0
SB_w[2,1]_r[1] 0
SB_x[2,2]_r[1] 1
SB_y[2,2]_r[1] 0
SB_g[2,2]_r[1] 0
SB_w[2,2]_r[1] 0
SB_x[2,3]_r[1] 0
SB_y[2,3]_r[1] 1
SB_g[2,3]_r[1] 0
SB_w[2,3]_r[1] 0
SB_x[3,0]_r[1] 1
SB_y[3,0]_r[1] 0
SB_g[3,0]_r[1] 0
SB_w[3,0]_r[1] 0
SB_x[3,1]_r[1] 0
SB_y[3,1]_r[1] 1
SB_g[3,1]_r[1] 0
SB_w[3,1]_r[1] 0
SB_x[3,2]_r[1] 1
SB_y[3,2]_r[1] 0
SB_g[3,2]_r[1] 0
SB_w[3,2]_r[1] 0
SB_x[3,3]_r[1] 0
SB_y[3,3]_r[1] 1
SB_g[3,3]_r[1] 0
SB_w[3,3]_r[1] 0
SB_x[0,0]_r[2] 0
SB_y[0,0]_r[2] 0
SB_g[0,0]_r[2] 0
SB_w[0,0]_r[2] 1
SB_x[0,1]_r[2] 1
SB_y[0,1]_r[2] 0
SB_g[0,1]_r[2] 0
SB_w[0,1]_r[2] 0
SB_x[0,2]_r[2] 0
SB_y[0,2]_r[2] 0
SB_g[0,2]_r[2] 0
SB_w[0,2]_r[2] 1
SB_x[0,3]_r[2] 0
SB_y[0,3]_r[2] 0
SB_g[0,3]_r[2] 0
SB_w[0,3]_r[2] 1
SB_x[1,0]_r[2] 0
SB_y[1,0]_r[2] 0
SB_g[1,0]_r[2] 0
SB_w[1,0]_r[2] 1
SB_x[1,1]_r[2] 0
SB_y[1,1]_r[2] 0
SB_g[1,1]_r[2] 0
SB_w[1,1]_r[2] 1
SB_x[1,2]_r[2] 1
SB_y[1,2]_r[2] 0
SB_g[1,2]_r[2] 0
SB_w[1,2]_r[2] 0
SB_x[1,3]_r[2] 0
SB_y[1,3]_r[2] 0
SB_g[1,3]_r[2] 0
SB_w[1,3]_r[2] 1
SB_x[2,0]_r[2] 0
SB_y[2,0]_r[2] 0
SB_g[2,0]_r[2] 0
SB_w[2,0]_r[2] 1
SB_x[2,1]_r[2] 0
SB_y[2,1]_r[2] 0
SB_g[2,1]_r[2] 0
SB_w[2,1]_r[2] 1
SB_x[2,2]_r[2] 0
SB_y[2,2]_r[2] 0
SB_g[2,2]_r[2] 0
SB_w[2,2]_r[2] 1
SB_x[2,3]_r[2] 1
SB_y[2,3]_r[2] 0
SB_g[2,3]_r[2] 0
SB_w[2,3]_r[2] 0
SB_x[3,0]_r[2] 1
SB_y[3,0]_r[2] 0
SB_g[3,0]_r[2] 0
SB_w[3,0]_r[2] 0
SB_x[3,1]_r[2] 0
SB_y[3,1]_r[2] 0
SB_g[3,1]_r[2] 0
SB_w[3,1]_r[2] 1
SB_x[3,2]_r[2] 0
SB_y[3,2]_r[2] 0
SB_g[3,2]_r[2] 0
SB_w[3,2]_r[2] 1
SB_x[3,3]_r[2] 0
SB_y[3,3]_r[2] 0
SB_g[3,3]_r[2] 0
SB_w[3,3]_r[2] 1
SB_x[0,0]_r[3] 0
SB_y[0,0]_r[3] 0
SB_g[0,0]_r[3] 0
SB_w[0,0]_r[3] 1
SB_x[0,1]_r[3] 1
SB_y[0,1]_r[3] 0
SB_g[0,1]_r[3] 0
SB_w[0,1]_r[3] 0
SB_x[0,2]_r[3] 0
SB_y[0,2]_r[3] 0
SB_g[0,2]_r[3] 0
SB_w[0,2]_r[3] 1
SB_x[0,3]_r[3] 0
SB_y[0,3]_r[3] 0
SB_g[0,3]_r[3] 0
SB_w[0,3]_r[3] 1
SB_x[1,0]_r[3] 0
SB_y[1,0]_r[3] 0
SB_g[1,0]_r[3] 0
SB_w[1,0]_r[3] 1
SB_x[1,1]_r[3] 1
SB_y[1,1]_r[3] 0
SB_g[1,1]_r[3] 0
SB_w[1,1]_r[3] 0
SB_x[1,2]_r[3] 0
SB_y[1,2]_r[3] 0
SB_g[1,2]_r[3] 0
SB_w[1,2]_r[3] 1
SB_x[1,3]_r[3] 0
SB_y[1,3]_r[3] 0
SB_g[1,3]_r[3] 0
SB_w[1,3]_r[3] 1
SB_x[2,0]_r[3] 0
SB_y[2,0]_r[3] 0
SB_g[2,0]_r[3] 0
SB_w[2,0]_r[3] 1
SB_x[2,1]_r[3] 1
SB_y[2,1]_r[3] 0
SB_g[2,1]_r[3] 0
SB_w[2,1]_r[3] 0
SB_x[2,2]_r[3] 0
SB_y[2,2]_r[3] 0
SB_g[2,2]_r[3] 0
SB_w[2,2]_r[3] 1
SB_x[2,3]_r[3] 0
SB_y[2,3]_r[3] 0
SB_g[2,3]_r[3] 0
SB_w[2,3]_r[3] 1
SB_x[3,0]_r[3] 0
SB_y[3,0]_r[3] 0
SB_g[3,0]_r[3] 0
SB_w[3,0]_r[3] 1
SB_x[3,1]_r[3] 1
SB_y[3,1]_r[3] 0
SB_g[3,1]_r[3] 0
SB_w[3,1]_r[3] 0
SB_x[3,2]_r[3] 0
SB_y[3,2]_r[3] 0
SB_g[3,2]_r[3] 0
SB_w[3,2]_r[3] 1
SB_x[3,3]_r[3] 0
SB_y[3,3]_r[3] 0
SB_g[3,3]_r[3] 0
SB_w[3,3]_r[3] 1
SB_x[0,0]_r[4] 1
SB_y[0,0]_r[4] 0
SB_g[0,0]_r[4] 0
SB_w[0,0]_r[4] 0
SB_x[0,1]_r[4] 0
SB_y[0,1]_r[4] 1
SB_g[0,1]_r[4] 0
SB_w[0,1]_r[4] 0
SB_x[0,2]_r[4] 0
SB_y[0,2]_r[4] 1
SB_g[0,2]_r[4] 0
SB_w[0,2]_r[4] 0
SB_x[0,3]_r[4] 0
SB_y[0,3]_r[4] 1
SB_g[0,3]_r[4] 0
SB_w[0,3]_r[4] 0
SB_x[1,0]_r[4] 0
SB_y[1,0]_r[4] 1
SB_g[1,0]_r[4] 0
SB_w[1,0]_r[4] 0
SB_x[1,1]_r[4] 1
SB_y[1,1]_r[4] 0
SB_g[1,1]_r[4] 0
SB_w[1,1]_r[4] 0
SB_x[1,2]_r[4] 0
SB_y[1,2]_r[4] 1
SB_g[1,2]_r[4] 0
SB_w[1,2]_r[4] 0
SB_x[1,3]_r[4] 0
SB_y[1,3]_r[4] 1
SB_g[1,3]_r[4] 0
SB_w[1,3]_r[4] 0
SB_x[2,0]_r[4] 0
SB_y[2,0]_r[4] 1
SB_g[2,0]_r[4] 0
SB_w[2,0]_r[4] 0
SB_x[2,1]_r[4] 0
SB_y[2,1]_r[4] 1
SB_g[2,1]_r[4] 0
SB_w[2,1]_r[4] 0
SB_x[2,2]_r[4] 1
SB_y[2,2]_r[4] 0
SB_g[2,2]_r[4] 0
SB_w[2,2]_r[4] 0
SB_x[2,3]_r[4] 0
SB_y[2,3]_r[4] 1
SB_g[2,3]_r[4] 0
SB_w[2,3]_r[4] 0
SB_x[3,0]_r[4] 0
SB_y[3,0]_r[4] 1
SB_g[3,0]_r[4] 0
SB_w[3,0]_r[4] 0
SB_x[3,1]_r[4] -1.1102230246251565e-16
SB_y[3,1]_r[4] 1.0000000000000002e+00
SB_g[3,1]_r[4] 2.2204460492503131e-16
SB_w[3,1]_r[4] 0
SB_x[3,2]_r[4] 0
SB_y[3,2]_r[4] 1
SB_g[3,2]_r[4] 0
SB_w[3,2]_r[4] 0
SB_x[3,3]_r[4] 1
SB_y[3,3]_r[4] 0
SB_g[3,3]_r[4] 0
SB_w[3,3]_r[4] 0
SB_x[0,0]_r[5] 1
SB_y[0,0]_r[5] 0
SB_g[0,0]_r[5] 0
SB_w[0,0]_r[5] 0
SB_x[0,1]_r[5] 0
SB_y[0,1]_r[5] 1
SB_g[0,1]_r[5] 0
SB_w[0,1]_r[5] 0
SB_x[0,2]_r[5] 1
SB_y[0,2]_r[5] 1
SB_g[0,2]_r[5] 1
SB_w[0,2]_r[5] 0
SB_x[0,3]_r[5] 0
SB_y[0,3]_r[5] 1
SB_g[0,3]_r[5] 0
SB_w[0,3]_r[5] 0
SB_x[1,0]_r[5] 9.9999999999999889e-01
SB_y[1,0]_r[5] 1
SB_g[1,0]_r[5] 9.9999999999999889e-01
SB_w[1,0]_r[5] 0
SB_x[1,1]_r[5] 1
SB_y[1,1]_r[5] 1
SB_g[1,1]_r[5] 1
SB_w[1,1]_r[5] 0
SB_x[1,2]_r[5] 0
SB_y[1,2]_r[5] 1
SB_g[1,2]_r[5] 0
SB_w[1,2]_r[5] 0
SB_x[1,3]_r[5] 1
SB_y[1,3]_r[5] 1
SB_g[1,3]_r[5] 1
SB_w[1,3]_r[5] 0
SB_x[2,0]_r[5] 1
SB_y[2,0]_r[5] 0
SB_g[2,0]_r[5] 0
SB_w[2,0]_r[5] 0
SB_x[2,1]_r[5] 0
SB_y[2,1]_r[5] 1
SB_g[2,1]_r[5] 0
SB_w[2,1]_r[5] 0
SB_x[2,2]_r[5] 1
SB_y[2,2]_r[5] 1
SB_g[2,2]_r[5] 1
SB_w[2,2]_r[5] 0
SB_x[2,3]_r[5] 0
SB_y[2,3]_r[5] 1
SB_g[2,3]_r[5] 0
SB_w[2,3]_r[5] 0
SB_x[3,0]_r[5] 1
SB_y[3,0]_r[5] 1
SB_g[3,0]_r[5] 1
SB_w[3,0]_r[5] 0
SB_x[3,1]_r[5] 1
SB_y[3,1]_r[5] 1
SB_g[3,1]_r[5] 1
SB_w[3,1]_r[5] 0
SB_x[3,2]_r[5] 0
SB_y[3,2]_r[5] 1
SB_g[3,2]_r[5] 0
SB_w[3,2]_r[5] 0
SB_x[3,3]_r[5] 1
SB_y[3,3]_r[5] 1
SB_g[3,3]_r[5] 1
SB_w[3,3]_r[5] 0
SB_x[0,0]_r[6] 1
SB_y[0,0]_r[6] 0
SB_g[0,0]_r[6] 0
SB_w[0,0]_r[6] 0
SB_x[0,1]_r[6] 0
SB_y[0,1]_r[6] 1
SB_g[0,1]_r[6] 0
SB_w[0,1]_r[6] 0
SB_x[0,2]_r[6] 1
SB_y[0,2]_r[6] 0
SB_g[0,2]_r[6] 0
SB_w[0,2]_r[6] 0
SB_x[0,3]_r[6] 0
SB_y[0,3]_r[6] 1
SB_g[0,3]_r[6] 0
SB_w[0,3]_r[6] 0
SB_x[1,0]_r[6] 1
SB_y[1,0]_r[6] 0
SB_g[1,0]_r[6] 0
SB_w[1,0]_r[6] 0
SB_x[1,1]_r[6] 0
SB_y[1,1]_r[6] 1
SB_g[1,1]_r[6] 0
SB_w[1,1]_r[6] 0
SB_x[1,2]_r[6] 1
SB_y[1,2]_r[6] 0
SB_g[1,2]_r[6] 0
SB_w[1,2]_r[6] 0
SB_x[1,3]_r[6] 0
SB_y[1,3]_r[6] 1
SB_g[1,3]_r[6] 0
SB_w[1,3]_r[6] 0
SB_x[2,0]_r[6] 1
SB_y[2,0]_r[6] 0
SB_g[2,0]_r[6] 0
SB_w[2,0]_r[6] 0
SB_x[2,1]_r[6] 0
SB_y[2,1]_r[6] 1
SB_g[2,1]_r[6] 0
SB_w[2,1]_r[6] 0
SB_x[2,2]_r[6] 1
SB_y[2,2]_r[6] 0
SB_g[2,2]_r[6] 0
SB_w[2,2]_r[6] 0
SB_x[2,3]_r[6] 0
SB_y[2,3]_r[6] 1
SB_g[2,3]_r[6] 0
SB_w[2,3]_r[6] 0
SB_x[3,0]_r[6] 1
SB_y[3,0]_r[6] 0
SB_g[3,0]_r[6] 0
SB_w[3,0]_r[6] 0
SB_x[3,1]_r[6] 0
SB_y[3,1]_r[6] 1
SB_g[3,1]_r[6] 0
SB_w[3,1]_r[6] 0
SB_x[3,2]_r[6] 1
SB_y[3,2]_r[6] 0
SB_g[3,2]_r[6] 0
SB_w[3,2]_r[6] 0
SB_x[3,3]_r[6] 0
SB_y[3,3]_r[6] 1
SB_g[3,3]_r[6] 0
SB_w[3,3]_r[6] 0
DoF_init_BL[0,0] 1
DoF_init_RD[0,0] 0
DoF_init_BL[0,1] 0
DoF_init_RD[0,1] 1
DoF_init_BL[0,2] 0
DoF_init_RD[0,2] 1
DoF_init_BL[0,3] 0
DoF_init_RD[0,3] 1
DoF_init_BL[1,0] 0
DoF_init_RD[1,0] 1
DoF_init_BL[1,1] 1
DoF_init_RD[1,1] 0
DoF_init_BL[1,2] 0
DoF_init_RD[1,2] 1
DoF_init_BL[1,3] 0
DoF_init_RD[1,3] 1
DoF_init_BL[2,0] 0
DoF_init_RD[2,0] 1
DoF_init_BL[2,1] 0
DoF_init_RD[2,1] 1
DoF_init_BL[2,2] 1
DoF_init_RD[2,2] 0
DoF_init_BL[2,3] 0
DoF_init_RD[2,3] 1
DoF_init_BL[3,0] 0
DoF_init_RD[3,0] 1
DoF_init_BL[3,1] -2.2204460492503131e-16
DoF_init_RD[3,1] 1
DoF_init_BL[3,2] 0
DoF_init_RD[3,2] 1
DoF_init_BL[3,3] 1
DoF_init_RD[3,3] 0
CD_x_c[0]_r[0] 0
CD_y_c[0]_r[0] 0
CD_x_c[1]_r[0] 0
CD_y_c[1]_r[0] 0
CD_x_c[2]_r[0] 0
CD_y_c[2]_r[0] 0
CD_x_c[3]_r[0] 0
CD_y_c[3]_r[0] 0
CD_x_c[0]_r[1] 0
CD_y_c[0]_r[1] 0
CD_x_c[1]_r[1] 0
CD_y_c[1]_r[1] 0
CD_x_c[2]_r[1] 0
CD_y_c[2]_r[1] 0
CD_x_c[3]_r[1] 0
CD_y_c[3]_r[1] 0
CD_x_c[0]_r[2] 0
CD_y_c[0]_r[2] 0
CD_x_c[1]_r[2] 0
CD_y_c[1]_r[2] 0
CD_x_c[2]_r[2] 0
CD_y_c[2]_r[2] 0
CD_x_c[3]_r[2] 0
CD_y_c[3]_r[2] 0
CD_x_c[0]_r[3] 0
CD_y_c[0]_r[3] 1
CD_x_c[1]_r[3] 0
CD_y_c[1]_r[3] 1
CD_x_c[2]_r[3] 0
CD_y_c[2]_r[3] 1
CD_x_c[3]_r[3] 0
CD_y_c[3]_r[3] 1
CD_x_c[0]_r[4] 2
CD_y_c[0]_r[4] 0
CD_x_c[1]_r[4] 0
CD_y_c[1]_r[4] 2
CD_x_c[2]_r[4] 0
CD_y_c[2]_r[4] 2
CD_x_c[3]_r[4] 0
CD_y_c[3]_r[4] 2
CD_x_c[0]_r[5] 0
CD_y_c[0]_r[5] 0
CD_x_c[1]_r[5] 0
CD_y_c[1]_r[5] 0
CD_x_c[2]_r[5] 0
CD_y_c[2]_r[5] 0
CD_x_c[3]_r[5] 0
CD_y_c[3]_r[5] 0
CD_x_c[0]_r[6] 0
CD_y_c[0]_r[6] 0
CD_x_c[1]_r[6] 0
CD_y_c[1]_r[6] 0
CD_x_c[2]_r[6] 0
CD_y_c[2]_r[6] 0
CD_x_c[3]_r[6] 0
CD_y_c[3]_r[6] 0
MT_n_c[0] 1
MT_m_c[0] 1
MT_n_c[1] 1
MT_m_c[1] 1
MT_n_c[2] 1
MT_m_c[2] 1
MT_n_c[3] 1
MT_m_c[3] 1
DoF_BL 2
DoF_RD 2
DoM 4
Obj 2
SB_Xc[0]_r[0] 0
SB_Yc[0]_r[0] 0
SB_Wc[0]_r[0] 0
MC_Xc[0]_r[0] 1
MC_Yc[0]_r[0] 0
MC_Wc[0]_r[0] 0
SB_Xc[1]_r[0] 0
SB_Yc[1]_r[0] 0
SB_Wc[1]_r[0] 0
MC_Xc[1]_r[0] 0
MC_Yc[1]_r[0] 1
MC_Wc[1]_r[0] 0
SB_Xc[2]_r[0] 0
SB_Yc[2]_r[0] 0
SB_Wc[2]_r[0] 0
MC_Xc[2]_r[0] 1
MC_Yc[2]_r[0] 0
MC_Wc[2]_r[0] 0
SB_Xc[3]_r[0] 0
SB_Yc[3]_r[0] 0
SB_Wc[3]_r[0] 0
MC_Xc[3]_r[0] 0
MC_Yc[3]_r[0] 1
MC_Wc[3]_r[0] 0
SB_Xc[0]_r[1] 1
SB_Yc[0]_r[1] 0
SB_Wc[0]_r[1] 0
MC_Xc[0]_r[1] 0
MC_Yc[0]_r[1] 0
MC_Wc[0]_r[1] 0
SB_Xc[1]_r[1] 0
SB_Yc[1]_r[1] 1
SB_Wc[1]_r[1] 0
MC_Xc[1]_r[1] 0
MC_Yc[1]_r[1] 0
MC_Wc[1]_r[1] 0
SB_Xc[2]_r[1] 1
SB_Yc[2]_r[1] 0
SB_Wc[2]_r[1] 0
MC_Xc[2]_r[1] 0
MC_Yc[2]_r[1] 0
MC_Wc[2]_r[1] 0
SB_Xc[3]_r[1] 0
SB_Yc[3]_r[1] 1
SB_Wc[3]_r[1] 0
MC_Xc[3]_r[1] 0
MC_Yc[3]_r[1] 0
MC_Wc[3]_r[1] 0
SB_Xc[0]_r[2] 0
SB_Yc[0]_r[2] 0
SB_Wc[0]_r[2] 1
MC_Xc[0]_r[2] 0
MC_Yc[0]_r[2] 0
MC_Wc[0]_r[2] 1
SB_Xc[1]_r[2] 0
SB_Yc[1]_r[2] 0
SB_Wc[1]_r[2] 1
MC_Xc[1]_r[2] 1
MC_Yc[1]_r[2] 0
MC_Wc[1]_r[2] 0
SB_Xc[2]_r[2] 0
SB_Yc[2]_r[2] 0
SB_Wc[2]_r[2] 1
MC_Xc[2]_r[2] 0
MC_Yc[2]_r[2] 0
MC_Wc[2]_r[2] 1
SB_Xc[3]_r[2] 0
SB_Yc[3]_r[2] 0
SB_Wc[3]_r[2] 1
MC_Xc[3]_r[2] 0
MC_Yc[3]_r[2] 0
MC_Wc[3]_r[2] 1
SB_Xc[0]_r[3] 0
SB_Yc[0]_r[3] 0
SB_Wc[0]_r[3] 1
MC_Xc[0]_r[3] 0
MC_Yc[0]_r[3] 0
MC_Wc[0]_r[3] 1
SB_Xc[1]_r[3] 1
SB_Yc[1]_r[3] 0
SB_Wc[1]_r[3] 0
MC_Xc[1]_r[3] 0
MC_Yc[1]_r[3] 0
MC_Wc[1]_r[3] 1
SB_Xc[2]_r[3] 0
SB_Yc[2]_r[3] 0
SB_Wc[2]_r[3] 1
MC_Xc[2]_r[3] 0
MC_Yc[2]_r[3] 0
MC_Wc[2]_r[3] 1
SB_Xc[3]_r[3] 0
SB_Yc[3]_r[3] 0
SB_Wc[3]_r[3] 1
MC_Xc[3]_r[3] 0
MC_Yc[3]_r[3] 0
MC_Wc[3]_r[3] 1
SB_Xc[0]_r[4] 0
SB_Yc[0]_r[4] 0
SB_Wc[0]_r[4] 0
MC_Xc[0]_r[4] 1
MC_Yc[0]_r[4] 0
MC_Wc[0]_r[4] 0
SB_Xc[1]_r[4] 0
SB_Yc[1]_r[4] 0
SB_Wc[1]_r[4] 0
MC_Xc[1]_r[4] 0
MC_Yc[1]_r[4] 1
MC_Wc[1]_r[4] 0
SB_Xc[2]_r[4] 0
SB_Yc[2]_r[4] 0
SB_Wc[2]_r[4] 0
MC_Xc[2]_r[4] 0
MC_Yc[2]_r[4] 1
MC_Wc[2]_r[4] 0
SB_Xc[3]_r[4] 0
SB_Yc[3]_r[4] 0
SB_Wc[3]_r[4] 0
MC_Xc[3]_r[4] 0
MC_Yc[3]_r[4] 1
MC_Wc[3]_r[4] 0
SB_Xc[0]_r[5] 9.9999999999999889e-01
SB_Yc[0]_r[5] 0
SB_Wc[0]_r[5] 0
MC_Xc[0]_r[5] 1
MC_Yc[0]_r[5] 0
MC_Wc[0]_r[5] 0
SB_Xc[1]_r[5] 0
SB_Yc[1]_r[5] 1
SB_Wc[1]_r[5] 0
MC_Xc[1]_r[5] 0
MC_Yc[1]_r[5] 1
MC_Wc[1]_r[5] 0
SB_Xc[2]_r[5] 0
SB_Yc[2]_r[5] 1
SB_Wc[2]_r[5] 0
MC_Xc[2]_r[5] 1
MC_Yc[2]_r[5] 0
MC_Wc[2]_r[5] 0
SB_Xc[3]_r[5] 0
SB_Yc[3]_r[5] 1
SB_Wc[3]_r[5] 0
MC_Xc[3]_r[5] 0
MC_Yc[3]_r[5] 1
MC_Wc[3]_r[5] 0
SB_Xc[0]_r[6] 1
SB_Yc[0]_r[6] 0
SB_Wc[0]_r[6] 0
MC_Xc[0]_r[6] 0
MC_Yc[0]_r[6] 0
MC_Wc[0]_r[6] 0
SB_Xc[1]_r[6] 0
SB_Yc[1]_r[6] 1
SB_Wc[1]_r[6] 0
MC_Xc[1]_r[6] 0
MC_Yc[1]_r[6] 0
MC_Wc[1]_r[6] 0
SB_Xc[2]_r[6] 1
SB_Yc[2]_r[6] 0
SB_Wc[2]_r[6] 0
MC_Xc[2]_r[6] 0
MC_Yc[2]_r[6] 0
MC_Wc[2]_r[6] 0
SB_Xc[3]_r[6] 0
SB_Yc[3]_r[6] 1
SB_Wc[3]_r[6] 0
MC_Xc[3]_r[6] 0
MC_Yc[3]_r[6] 0
MC_Wc[3]_r[6] 0
